NAME : 10_3_3_2_(28).dat
COMMENT : Henke, Speranza, Wäscher, 2015
TYPE : MCVRP
DIMENSION : 11
EDGE_WEIGHT_TYPE : DISTANCE_MATRIX
CAPACITY : 1000
VEHICLES : 3
PRODUCT TYPES : 3
COMPARTMENTS : 3
NODE_COORD_SECTION
1 50 50
2 90.95 19.34
3 85.29 29.81
4 50.43 69.21
5 79.27 5.67
6 19.15 77.29
7 96.41 25
8 11.66 73.61
9 80.7 8.44
10 41.5 73.48
11 41.83 11.26
DEMAND_SECTION
1 0 0 0
2 130 0 128
3 5 62 0
4 109 114 0
5 67 79 0
6 118 33 0
7 122 0 141
8 48 0 50
9 24 8 0
10 126 56 0
11 50 127 0
DEPOT_SECTION
1
EOF